\ENCODING=ISO-8859-1
\Problem name: inst_12_cut_n13

Maximize
 obj1: 36 x0 + 97 x1 + 15 x2 + 31 x3 + 46 x4 + 97 x5 + 94 x6 + 48 x7 + 42 x8
       + 43 x9
Subject To
 c0:     84 x0 + 4 x1 + 66 x2 + 40 x3 + 73 x4 + 67 x5 + 35 x6 + 97 x7 + 72 x8
         + 27 x9 + s0 <= 235
 c1:     49 x0 + 8 x1 + 5 x2 + 62 x3 + 17 x4 + 51 x5 + 46 x6 + 52 x7 + 88 x8
         + 61 x9 + s1 <= 904
 c2:     51 x0 + 90 x1 + 89 x2 + 57 x3 + 16 x4 + 80 x5 + 9 x6 + 97 x7 + 25 x8
         + 53 x9 + s2 <= 323
 c3:     39 x0 + 21 x1 + 7 x2 + 7 x3 + 91 x4 + 89 x5 + 66 x6 + 63 x7 + 87 x8
         + 12 x9 + s3 <= 914
 c4:     67 x0 + 76 x1 + 41 x2 + 29 x3 + 34 x4 + 34 x5 + x6 + 37 x7 + 64 x8
         + 75 x9 + s4 <= 409
 c5:     31 x0 + 32 x1 + 93 x2 + 2 x3 + 34 x4 + 55 x5 + 28 x6 + 20 x7 + 34 x8
         + 97 x9 + s5 <= 41
 c6:     31 x0 + 15 x1 + 63 x2 + 34 x3 + 48 x4 + 11 x5 + 29 x6 + 40 x7 + 35 x8
         + 67 x9 + s6 <= 368
 c7:     13 x0 + 95 x1 + 19 x2 + 78 x3 + 26 x4 + 59 x5 + 44 x6 + 6 x7 + 43 x8
         + 59 x9 + s7 <= 822
 c8:     41 x0 + 12 x1 + 79 x2 + 40 x3 + 42 x4 + 57 x5 + 96 x6 + 78 x7 + 50 x8
         + 61 x9 + s8 <= 966
 c9:     42 x0 + 95 x1 + 13 x2 + 71 x3 + 20 x4 + 39 x5 + 30 x6 + 57 x7 + 79 x8
         + 17 x9 + s9 <= 26
 c10:    79 x0 + 46 x1 + 4 x2 + 13 x3 + 56 x4 + 21 x5 + 52 x6 + 37 x7 + 56 x8
         + 64 x9 + s10 <= 238
 c11:    36 x0 + 61 x1 + 59 x2 + 68 x3 + 98 x4 + 75 x5 + 28 x6 + 62 x7 + 20 x8
         + 83 x9 + s11 <= 241
 c12:    19 x0 + 97 x1 + 98 x2 + 51 x3 + 67 x4 + 71 x5 + 7 x6 + 100 x7 + 94 x8
         + 57 x9 + s12 <= 714
 cut_1:  35 x0 + 79 x1 + 10 x2 + 59 x3 + 16 x4 + 32 x5 + 25 x6 + 47 x7 + 65 x8
         + 14 x9 <= 21
 cut_2:  19 x0 + 44 x1 + 6 x2 + 33 x3 + 9 x4 + 18 x5 + 14 x6 + 26 x7 + 36 x8
         + 7 x9 <= 12
 cut_3:  29 x0 + 66 x1 + 9.00000000000001 x2 + 49 x3 + 14 x4 + 27 x5 + 21 x6
         + 39 x7 + 55 x8 + 11 x9 <= 18
 cut_4:  33 x0 + 75 x1 + 10 x2 + 56 x3 + 16 x4 + 31 x5 + 24 x6 + 45 x7 + 63 x8
         + 13 x9 <= 20
 cut_5:  40 x0 + 91 x1 + 12 x2 + 68 x3 + 19 x4 + 37 x5 + 29 x6 + 55 x7 + 76 x8
         + 16 x9 <= 25
 cut_6:  2 x0 + 6 x1 - 7.7715611723761e-15 x2 + 4 x3 + x4 + 2 x5 + 2 x6 + 3 x7
         + 5 x8 + x9 <= 0.999999999999999
 cut_7:  x0 + 2.99999999999999 x1 - 3.88578058618805e-15 x2
         + 2.00000000000001 x3 - 1.33226762955019e-15 x4 + x5 + x6 + x7
         + 2.00000000000001 x8 + 3.66373598126302e-15 x9
         <= -7.7715611723761e-15
 cut_8:  22 x0 + 50 x1 + 6 x2 + 37 x3 + 10 x4 + 20 x5 + 16 x6 + 30 x7 + 42 x8
         + 9 x9 <= 13
 cut_9:  33 x0 + 76 x1 + 10 x2 + 56 x3 + 16 x4 + 31 x5 + 24 x6 + 45 x7 + 63 x8
         + 13 x9 <= 20
 cut_10: x0 + 3 x1 + 2 x3 + x5 + x6 + x7 + 2 x8 <= 0
 cut_11: 11 x0 + 25 x1 + 3 x2 + 18 x3 + 5 x4 + 10 x5 + 8 x6 + 15 x7 + 21 x8
         + 4 x9 <= 5.99999999999999
 cut_12: 2 x0 + 6 x1 - 6.66133814775094e-16 x2 + 4 x3 + x4 + 2 x5 + 2 x6 + 3 x7
         + 5 x8 + x9 <= 0.999999999999984
 cut_13: 32 x0 + 72 x1 + 9 x2 + 54 x3 + 15 x4 + 29 x5 + 23 x6 + 43 x7 + 60 x8
         + 13 x9 <= 19
Bounds
 0 <= x0 <= 1
 0 <= x1 <= 1
 0 <= x2 <= 1
 0 <= x3 <= 1
 0 <= x4 <= 1
 0 <= x5 <= 1
 0 <= x6 <= 1
 0 <= x7 <= 1
 0 <= x8 <= 1
 0 <= x9 <= 1
End
